p cnf 132 836
1 2 3 0
4 5 6 0
7 8 9 0
10 11 12 0
13 14 15 0
16 17 18 0
19 20 21 0
22 23 24 0
25 26 27 0
28 29 30 0
31 32 33 0
34 35 36 0
37 38 39 0
40 41 42 0
43 44 45 0
46 47 48 0
49 50 51 0
52 53 54 0
55 56 57 0
58 59 60 0
61 62 63 0
64 65 66 0
67 68 69 0
70 71 72 0
73 74 75 0
76 77 78 0
79 80 81 0
82 83 84 0
85 86 87 0
88 89 90 0
91 92 93 0
94 95 96 0
97 98 99 0
100 101 102 0
103 104 105 0
106 107 108 0
109 110 111 0
112 113 114 0
115 116 117 0
118 119 120 0
121 122 123 0
124 125 126 0
127 128 129 0
130 131 132 0
-1 -2 0
-1 -3 0
-2 -3 0
-4 -5 0
-4 -6 0
-5 -6 0
-7 -8 0
-7 -9 0
-8 -9 0
-10 -11 0
-10 -12 0
-11 -12 0
-13 -14 0
-13 -15 0
-14 -15 0
-16 -17 0
-16 -18 0
-17 -18 0
-19 -20 0
-19 -21 0
-20 -21 0
-22 -23 0
-22 -24 0
-23 -24 0
-25 -26 0
-25 -27 0
-26 -27 0
-28 -29 0
-28 -30 0
-29 -30 0
-31 -32 0
-31 -33 0
-32 -33 0
-34 -35 0
-34 -36 0
-35 -36 0
-37 -38 0
-37 -39 0
-38 -39 0
-40 -41 0
-40 -42 0
-41 -42 0
-43 -44 0
-43 -45 0
-44 -45 0
-46 -47 0
-46 -48 0
-47 -48 0
-49 -50 0
-49 -51 0
-50 -51 0
-52 -53 0
-52 -54 0
-53 -54 0
-55 -56 0
-55 -57 0
-56 -57 0
-58 -59 0
-58 -60 0
-59 -60 0
-61 -62 0
-61 -63 0
-62 -63 0
-64 -65 0
-64 -66 0
-65 -66 0
-67 -68 0
-67 -69 0
-68 -69 0
-70 -71 0
-70 -72 0
-71 -72 0
-73 -74 0
-73 -75 0
-74 -75 0
-76 -77 0
-76 -78 0
-77 -78 0
-79 -80 0
-79 -81 0
-80 -81 0
-82 -83 0
-82 -84 0
-83 -84 0
-85 -86 0
-85 -87 0
-86 -87 0
-88 -89 0
-88 -90 0
-89 -90 0
-91 -92 0
-91 -93 0
-92 -93 0
-94 -95 0
-94 -96 0
-95 -96 0
-97 -98 0
-97 -99 0
-98 -99 0
-100 -101 0
-100 -102 0
-101 -102 0
-103 -104 0
-103 -105 0
-104 -105 0
-106 -107 0
-106 -108 0
-107 -108 0
-109 -110 0
-109 -111 0
-110 -111 0
-112 -113 0
-112 -114 0
-113 -114 0
-115 -116 0
-115 -117 0
-116 -117 0
-118 -119 0
-118 -120 0
-119 -120 0
-121 -122 0
-121 -123 0
-122 -123 0
-124 -125 0
-124 -126 0
-125 -126 0
-127 -128 0
-127 -129 0
-128 -129 0
-130 -131 0
-130 -132 0
-131 -132 0
-1 -4 0
-2 -5 0
-3 -6 0
-1 -10 0
-2 -11 0
-3 -12 0
-1 -7 0
-2 -8 0
-3 -9 0
-1 -13 0
-2 -14 0
-3 -15 0
-1 -16 0
-2 -17 0
-3 -18 0
-4 -19 0
-5 -20 0
-6 -21 0
-4 -28 0
-5 -29 0
-6 -30 0
-4 -22 0
-5 -23 0
-6 -24 0
-4 -1 0
-5 -2 0
-6 -3 0
-4 -25 0
-5 -26 0
-6 -27 0
-7 -67 0
-8 -68 0
-9 -69 0
-7 -64 0
-8 -65 0
-9 -66 0
-7 -10 0
-8 -11 0
-9 -12 0
-7 -61 0
-8 -62 0
-9 -63 0
-7 -1 0
-8 -2 0
-9 -3 0
-10 -28 0
-11 -29 0
-12 -30 0
-10 -130 0
-11 -131 0
-12 -132 0
-10 -115 0
-11 -116 0
-12 -117 0
-10 -7 0
-11 -8 0
-12 -9 0
-10 -1 0
-11 -2 0
-12 -3 0
-13 -40 0
-14 -41 0
-15 -42 0
-13 -115 0
-14 -116 0
-15 -117 0
-13 -61 0
-14 -62 0
-15 -63 0
-13 -1 0
-14 -2 0
-15 -3 0
-13 -16 0
-14 -17 0
-15 -18 0
-16 -124 0
-17 -125 0
-18 -126 0
-16 -130 0
-17 -131 0
-18 -132 0
-16 -13 0
-17 -14 0
-18 -15 0
-16 -1 0
-17 -2 0
-18 -3 0
-16 -85 0
-17 -86 0
-18 -87 0
-19 -4 0
-20 -5 0
-21 -6 0
-19 -55 0
-20 -56 0
-21 -57 0
-19 -73 0
-20 -74 0
-21 -75 0
-19 -88 0
-20 -89 0
-21 -90 0
-19 -91 0
-20 -92 0
-21 -93 0
-22 -4 0
-23 -5 0
-24 -6 0
-22 -130 0
-23 -131 0
-24 -132 0
-22 -43 0
-23 -44 0
-24 -45 0
-22 -121 0
-23 -122 0
-24 -123 0
-22 -46 0
-23 -47 0
-24 -48 0
-25 -70 0
-26 -71 0
-27 -72 0
-25 -4 0
-26 -5 0
-27 -6 0
-25 -130 0
-26 -131 0
-27 -132 0
-25 -115 0
-26 -116 0
-27 -117 0
-25 -97 0
-26 -98 0
-27 -99 0
-28 -4 0
-29 -5 0
-30 -6 0
-28 -10 0
-29 -11 0
-30 -12 0
-28 -55 0
-29 -56 0
-30 -57 0
-28 -88 0
-29 -89 0
-30 -90 0
-28 -118 0
-29 -119 0
-30 -120 0
-31 -37 0
-32 -38 0
-33 -39 0
-31 -40 0
-32 -41 0
-33 -42 0
-31 -43 0
-32 -44 0
-33 -45 0
-31 -34 0
-32 -35 0
-33 -36 0
-31 -46 0
-32 -47 0
-33 -48 0
-34 -31 0
-35 -32 0
-36 -33 0
-34 -58 0
-35 -59 0
-36 -60 0
-34 -52 0
-35 -53 0
-36 -54 0
-34 -55 0
-35 -56 0
-36 -57 0
-34 -49 0
-35 -50 0
-36 -51 0
-37 -31 0
-38 -32 0
-39 -33 0
-37 -100 0
-38 -101 0
-39 -102 0
-37 -76 0
-38 -77 0
-39 -78 0
-37 -91 0
-38 -92 0
-39 -93 0
-37 -97 0
-38 -98 0
-39 -99 0
-40 -31 0
-41 -32 0
-42 -33 0
-40 -73 0
-41 -74 0
-42 -75 0
-40 -76 0
-41 -77 0
-42 -78 0
-40 -79 0
-41 -80 0
-42 -81 0
-40 -13 0
-41 -14 0
-42 -15 0
-43 -31 0
-44 -32 0
-45 -33 0
-43 -58 0
-44 -59 0
-45 -60 0
-43 -94 0
-44 -95 0
-45 -96 0
-43 -61 0
-44 -62 0
-45 -63 0
-43 -22 0
-44 -23 0
-45 -24 0
-46 -31 0
-47 -32 0
-48 -33 0
-46 -67 0
-47 -68 0
-48 -69 0
-46 -22 0
-47 -23 0
-48 -24 0
-46 -97 0
-47 -98 0
-48 -99 0
-46 -109 0
-47 -110 0
-48 -111 0
-49 -106 0
-50 -107 0
-51 -108 0
-49 -94 0
-50 -95 0
-51 -96 0
-49 -103 0
-50 -104 0
-51 -105 0
-49 -34 0
-50 -35 0
-51 -36 0
-49 -109 0
-50 -110 0
-51 -111 0
-52 -103 0
-53 -104 0
-54 -105 0
-52 -61 0
-53 -62 0
-54 -63 0
-52 -82 0
-53 -83 0
-54 -84 0
-52 -88 0
-53 -89 0
-54 -90 0
-52 -34 0
-53 -35 0
-54 -36 0
-55 -106 0
-56 -107 0
-57 -108 0
-55 -19 0
-56 -20 0
-57 -21 0
-55 -28 0
-56 -29 0
-57 -30 0
-55 -121 0
-56 -122 0
-57 -123 0
-55 -34 0
-56 -35 0
-57 -36 0
-58 -127 0
-59 -128 0
-60 -129 0
-58 -43 0
-59 -44 0
-60 -45 0
-58 -76 0
-59 -77 0
-60 -78 0
-58 -34 0
-59 -35 0
-60 -36 0
-58 -118 0
-59 -119 0
-60 -120 0
-61 -70 0
-62 -71 0
-63 -72 0
-61 -52 0
-62 -53 0
-63 -54 0
-61 -43 0
-62 -44 0
-63 -45 0
-61 -7 0
-62 -8 0
-63 -9 0
-61 -13 0
-62 -14 0
-63 -15 0
-64 -70 0
-65 -71 0
-66 -72 0
-64 -124 0
-65 -125 0
-66 -126 0
-64 -73 0
-65 -74 0
-66 -75 0
-64 -7 0
-65 -8 0
-66 -9 0
-64 -121 0
-65 -122 0
-66 -123 0
-67 -124 0
-68 -125 0
-69 -126 0
-67 -103 0
-68 -104 0
-69 -105 0
-67 -7 0
-68 -8 0
-69 -9 0
-67 -112 0
-68 -113 0
-69 -114 0
-67 -46 0
-68 -47 0
-69 -48 0
-70 -64 0
-71 -65 0
-72 -66 0
-70 -61 0
-71 -62 0
-72 -63 0
-70 -76 0
-71 -77 0
-72 -78 0
-70 -91 0
-71 -92 0
-72 -93 0
-70 -25 0
-71 -26 0
-72 -27 0
-73 -19 0
-74 -20 0
-75 -21 0
-73 -40 0
-74 -41 0
-75 -42 0
-73 -64 0
-74 -65 0
-75 -66 0
-73 -82 0
-74 -83 0
-75 -84 0
-73 -85 0
-74 -86 0
-75 -87 0
-76 -70 0
-77 -71 0
-78 -72 0
-76 -58 0
-77 -59 0
-78 -60 0
-76 -106 0
-77 -107 0
-78 -108 0
-76 -37 0
-77 -38 0
-78 -39 0
-76 -40 0
-77 -41 0
-78 -42 0
-79 -40 0
-80 -41 0
-81 -42 0
-79 -130 0
-80 -131 0
-81 -132 0
-79 -115 0
-80 -116 0
-81 -117 0
-79 -91 0
-80 -92 0
-81 -93 0
-79 -112 0
-80 -113 0
-81 -114 0
-82 -106 0
-83 -107 0
-84 -108 0
-82 -52 0
-83 -53 0
-84 -54 0
-82 -100 0
-83 -101 0
-84 -102 0
-82 -73 0
-83 -74 0
-84 -75 0
-82 -112 0
-83 -113 0
-84 -114 0
-85 -94 0
-86 -95 0
-87 -96 0
-85 -127 0
-86 -128 0
-87 -129 0
-85 -73 0
-86 -74 0
-87 -75 0
-85 -121 0
-86 -122 0
-87 -123 0
-85 -16 0
-86 -17 0
-87 -18 0
-88 -19 0
-89 -20 0
-90 -21 0
-88 -52 0
-89 -53 0
-90 -54 0
-88 -28 0
-89 -29 0
-90 -30 0
-88 -91 0
-89 -92 0
-90 -93 0
-88 -112 0
-89 -113 0
-90 -114 0
-91 -70 0
-92 -71 0
-93 -72 0
-91 -37 0
-92 -38 0
-93 -39 0
-91 -19 0
-92 -20 0
-93 -21 0
-91 -88 0
-92 -89 0
-93 -90 0
-91 -79 0
-92 -80 0
-93 -81 0
-94 -43 0
-95 -44 0
-96 -45 0
-94 -100 0
-95 -101 0
-96 -102 0
-94 -49 0
-95 -50 0
-96 -51 0
-94 -97 0
-95 -98 0
-96 -99 0
-94 -85 0
-95 -86 0
-96 -87 0
-97 -124 0
-98 -125 0
-99 -126 0
-97 -37 0
-98 -38 0
-99 -39 0
-97 -94 0
-98 -95 0
-99 -96 0
-97 -25 0
-98 -26 0
-99 -27 0
-97 -46 0
-98 -47 0
-99 -48 0
-100 -37 0
-101 -38 0
-102 -39 0
-100 -94 0
-101 -95 0
-102 -96 0
-100 -115 0
-101 -116 0
-102 -117 0
-100 -82 0
-101 -83 0
-102 -84 0
-100 -112 0
-101 -113 0
-102 -114 0
-103 -67 0
-104 -68 0
-105 -69 0
-103 -52 0
-104 -53 0
-105 -54 0
-103 -127 0
-104 -128 0
-105 -129 0
-103 -49 0
-104 -50 0
-105 -51 0
-103 -118 0
-104 -119 0
-105 -120 0
-106 -55 0
-107 -56 0
-108 -57 0
-106 -49 0
-107 -50 0
-108 -51 0
-106 -82 0
-107 -83 0
-108 -84 0
-106 -76 0
-107 -77 0
-108 -78 0
-106 -109 0
-107 -110 0
-108 -111 0
-109 -124 0
-110 -125 0
-111 -126 0
-109 -106 0
-110 -107 0
-111 -108 0
-109 -127 0
-110 -128 0
-111 -129 0
-109 -49 0
-110 -50 0
-111 -51 0
-109 -46 0
-110 -47 0
-111 -48 0
-112 -67 0
-113 -68 0
-114 -69 0
-112 -100 0
-113 -101 0
-114 -102 0
-112 -82 0
-113 -83 0
-114 -84 0
-112 -88 0
-113 -89 0
-114 -90 0
-112 -79 0
-113 -80 0
-114 -81 0
-115 -10 0
-116 -11 0
-117 -12 0
-115 -100 0
-116 -101 0
-117 -102 0
-115 -79 0
-116 -80 0
-117 -81 0
-115 -13 0
-116 -14 0
-117 -15 0
-115 -25 0
-116 -26 0
-117 -27 0
-118 -58 0
-119 -59 0
-120 -60 0
-118 -28 0
-119 -29 0
-120 -30 0
-118 -127 0
-119 -128 0
-120 -129 0
-118 -103 0
-119 -104 0
-120 -105 0
-118 -121 0
-119 -122 0
-120 -123 0
-121 -64 0
-122 -65 0
-123 -66 0
-121 -55 0
-122 -56 0
-123 -57 0
-121 -22 0
-122 -23 0
-123 -24 0
-121 -118 0
-122 -119 0
-123 -120 0
-121 -85 0
-122 -86 0
-123 -87 0
-124 -67 0
-125 -68 0
-126 -69 0
-124 -64 0
-125 -65 0
-126 -66 0
-124 -97 0
-125 -98 0
-126 -99 0
-124 -16 0
-125 -17 0
-126 -18 0
-124 -109 0
-125 -110 0
-126 -111 0
-127 -58 0
-128 -59 0
-129 -60 0
-127 -103 0
-128 -104 0
-129 -105 0
-127 -118 0
-128 -119 0
-129 -120 0
-127 -85 0
-128 -86 0
-129 -87 0
-127 -109 0
-128 -110 0
-129 -111 0
-130 -25 0
-131 -26 0
-132 -27 0
-130 -10 0
-131 -11 0
-132 -12 0
-130 -79 0
-131 -80 0
-132 -81 0
-130 -22 0
-131 -23 0
-132 -24 0
-130 -16 0
-131 -17 0
-132 -18 0
